db/inputs/14268200971229661953019924486178087252.smt2
(set-logic QF_FP)
(declare-const x0 (_ FloatingPoint 8 24))
(declare-const x1 (_ FloatingPoint 8 24))
(declare-const x2 (_ FloatingPoint 8 24))
(declare-const x3 (_ FloatingPoint 8 24))
(declare-const x4 (_ FloatingPoint 8 24))
(declare-const x5 (_ FloatingPoint 8 24))
(declare-const x6 (_ FloatingPoint 8 24))
(declare-const x7 (_ FloatingPoint 8 24))
(declare-const x8 (_ FloatingPoint 8 24))
(declare-const x9 (_ FloatingPoint 8 24))
(declare-const x10 (_ FloatingPoint 8 24))
(declare-const x11 (_ FloatingPoint 8 24))
(declare-const x12 (_ FloatingPoint 8 24))
(declare-const x13 (_ FloatingPoint 8 24))
(assert (fp.eq (fp.add RNE x3 x9) (fp.add RNE x12 x6)))
(assert (fp.geq (fp.add RNE x10 x5) (fp.add RNE x4 x0)))
(assert (fp.lt (fp.neg x8) (fp.neg x7)))
(assert (fp.geq (fp.sub RNE x8 x0) (fp.div RNE x5 x2)))
(assert (fp.lt (fp.neg x10) (fp.div RNE x2 x6)))
(assert (fp.leq (fp.neg x5) (fp.sub RNE x3 x9)))
(assert (fp.leq (fp.mul RNE x1 x6) (fp.mul RNE x11 x1)))
(assert (fp.eq (fp.add RNE x3 x0) (fp.add RNE x8 x13)))
(check-sat)
