db/data/14268200971229661953019924486178087252.z3.out
sat
-------------------
10.444294969
